(set-logic HORN)
(set-info :source |
    Benchmark: C_VC
    Output by Princess (http://www.philipp.ruemmer.org/princess.shtml)
|)
(set-info :status sat)
(declare-heap Heap Addr HeapObject
 defObj
 ((HeapObject 0)) (
  (
   (O_Int (getInt Int))
   (O_UInt (getUInt Int))
   (O_Addr (getAddr Addr))
   (defObj)
  )
))
(declare-fun inv_main2 (Heap Int) Bool)
(declare-fun inv_main20 (Heap Int AddrRange AddrRange Int Int Int Int Int) Bool)
(declare-fun inv_main22 (Heap Int AddrRange AddrRange Int Int Int Int Int) Bool)
(declare-fun inv_main23 (Heap Int AddrRange AddrRange Int Int Int Int Int) Bool)
(declare-fun inv_main37 (Heap Int AddrRange AddrRange Int Int Int Int Int) Bool)
(declare-fun inv_main38 (Heap Int AddrRange AddrRange Int Int Int Int Int) Bool)
(declare-fun inv_main39 (Heap Int AddrRange AddrRange Int Int Int Int Int) Bool)
(declare-fun inv_main40 (Heap Int AddrRange AddrRange Int Int Int Int Int) Bool)
(declare-fun inv_main41 (Heap Int AddrRange AddrRange Int Int Int Int Int) Bool)
(declare-fun inv_main49 (Heap Int AddrRange AddrRange Int Int Int Int Int) Bool)
(declare-fun inv_main51 (Heap Int AddrRange AddrRange Int Int Int Int Int) Bool)
(declare-fun inv_main53 (Heap Int AddrRange AddrRange Int Int Int Int Int Int) Bool)
(assert (forall ((var0 Int) (var1 Heap)) (or (not (and (= var1 emptyHeap) (= var0 0))) (inv_main2 var1 var0))))
(assert (forall ((var0 Int) (var1 Int) (var2 Int) (var3 Int) (var4 AddrRange) (var5 AddrRange) (var6 Int) (var7 Heap) (var8 Int) (var9 Int) (var10 Int) (var11 Int) (var12 Int) (var13 Int) (var14 Int) (var15 Int) (var16 AddrRange) (var17 AddrRange) (var18 Int) (var19 Heap) (var20 Int) (var21 Int)) (or (not (and (inv_main23 var19 var18 var17 var16 var15 var14 var13 var12 var11) (and (not (or (not (and (and (and (and (<= 0 (+ (+ 2 (* (- 1) var20)) (- 1))) (<= 0 (+ (+ 2 (* 1 var20)) (- 1)))) (or (not (<= 0 (+ var20 (- 1)))) (<= 0 (+ var10 (- 1))))) (or (not (<= 0 (+ (* (- 1) var20) (- 1)))) (<= 0 (+ (* (- 1) var10) (- 1))))) (= var10 (+ (* 2 var21) var20)))) (= var20 0))) (and (not (= var9 0)) (and (<= 0 var8) (and (and (and (and (and (and (and (and (and (= var7 var19) (= var6 var18)) (= var5 var17)) (= var4 var16)) (= var3 var15)) (= var2 var14)) (= var1 var13)) (= var0 var12)) (= var10 var8)) (or (and (<= 0 (+ (+ var18 (* (- 1) var8)) (- 1))) (= var9 1)) (and (not (<= 0 (+ (+ var18 (* (- 1) var8)) (- 1)))) (= var9 0))))))))) (inv_main38 var7 var6 var5 var4 var3 var2 var1 var0 var10))))
(assert (forall ((var0 Int) (var1 Int) (var2 Int) (var3 Int) (var4 Int) (var5 AddrRange) (var6 AddrRange) (var7 Heap) (var8 Int) (var9 Int) (var10 Int) (var11 Int) (var12 Int) (var13 Int) (var14 Int) (var15 AddrRange) (var16 AddrRange) (var17 Int) (var18 Heap)) (or (not (and (inv_main22 var18 var17 var16 var15 var14 var13 var12 var11 var10) (and (and (<= 0 (+ (+ var9 (* (- 1) (+ var8 1))) (- 1))) (and (and (is-O_Int (read var18 (nthAddrRange var15 var14))) (is-O_Int (read var18 (nthAddrRange var15 var14)))) (and (and (and (and (and (and (and (and (= var7 (write var18 (nthAddrRange var15 var14) (O_Int 0))) (= var9 var17)) (= var6 var16)) (= var5 var15)) (= var8 var14)) (= var4 var13)) (= var3 var12)) (= var2 var11)) (= var1 var10)))) (= var0 (+ var8 1))))) (inv_main20 var7 var9 var6 var5 var0 var4 var3 var2 var1))))
(assert (forall ((var0 Int) (var1 Int) (var2 Int) (var3 Int) (var4 Int) (var5 Int) (var6 Heap) (var7 Int) (var8 Int) (var9 Int) (var10 Heap) (var11 AddrRange) (var12 AddrRange) (var13 AddrRange) (var14 Int) (var15 Int) (var16 Heap) (var17 Int) (var18 Int) (var19 Heap)) (or (not (and (inv_main2 var19 var18) (and (and (and (and (and (and (<= 0 (+ var17 (- 1))) (and (and (and (= var16 (newBatchHeap (batchAlloc emptyHeap (O_Int var15) var14))) (= var17 var14)) (= var13 var12)) (= var11 (newAddrRange (batchAlloc emptyHeap (O_Int var15) var14))))) (and (and (= var10 (newBatchHeap (batchAlloc emptyHeap (O_Int var9) var8))) (= var14 var8)) (= var12 (newAddrRange (batchAlloc emptyHeap (O_Int var9) var8))))) (and (not (= var7 0)) (and (and (= var6 var19) (= var8 var5)) (or (and (<= 0 (+ var5 (- 1))) (= var7 1)) (and (not (<= 0 (+ var5 (- 1)))) (= var7 0)))))) (= var4 0)) (= var3 (- 1))) (= var2 0)))) (inv_main20 var16 var17 var13 var11 var4 var3 var2 var1 var0))))
(assert (forall ((var0 Int) (var1 Int) (var2 Int) (var3 Int) (var4 AddrRange) (var5 AddrRange) (var6 Int) (var7 Heap) (var8 Int) (var9 Int) (var10 Int) (var11 Int) (var12 Int) (var13 Int) (var14 Int) (var15 Int) (var16 AddrRange) (var17 AddrRange) (var18 Int) (var19 Heap) (var20 Int) (var21 Int)) (or (not (and (inv_main23 var19 var18 var17 var16 var15 var14 var13 var12 var11) (and (and (and (and (and (and (<= 0 (+ (+ 2 (* (- 1) var20)) (- 1))) (<= 0 (+ (+ 2 (* 1 var20)) (- 1)))) (or (not (<= 0 (+ var20 (- 1)))) (<= 0 (+ var10 (- 1))))) (or (not (<= 0 (+ (* (- 1) var20) (- 1)))) (<= 0 (+ (* (- 1) var10) (- 1))))) (= var10 (+ (* 2 var21) var20))) (= var20 0)) (and (not (= var9 0)) (and (<= 0 var8) (and (and (and (and (and (and (and (and (and (= var7 var19) (= var6 var18)) (= var5 var17)) (= var4 var16)) (= var3 var15)) (= var2 var14)) (= var1 var13)) (= var0 var12)) (= var10 var8)) (or (and (<= 0 (+ (+ var18 (* (- 1) var8)) (- 1))) (= var9 1)) (and (not (<= 0 (+ (+ var18 (* (- 1) var8)) (- 1)))) (= var9 0))))))))) (inv_main37 var7 var6 var5 var4 var3 var2 var1 var0 var10))))
(assert (forall ((var0 Int) (var1 Int) (var2 Int) (var3 Int) (var4 Int) (var5 Int) (var6 AddrRange) (var7 AddrRange) (var8 Int) (var9 Heap)) (or (not (and (inv_main51 var9 var8 var7 var6 var5 var4 var3 var2 var1) (and (is-O_Int (read var9 (nthAddrRange var7 var5))) (= var0 (+ var3 (getInt (read var9 (nthAddrRange var7 var5)))))))) (inv_main53 var9 var8 var7 var6 var5 var4 var3 var2 var1 var0))))
(assert (forall ((var0 Heap) (var1 Int) (var2 Int) (var3 Int) (var4 Int) (var5 Int) (var6 AddrRange) (var7 AddrRange) (var8 Int) (var9 Heap)) (or (not (and (inv_main38 var9 var8 var7 var6 var5 var4 var3 var2 var1) (and (and (is-O_Int (read var9 (nthAddrRange var7 var1))) (is-O_Int (read var9 (nthAddrRange var7 var1)))) (= var0 (write var9 (nthAddrRange var7 var1) (O_Int (* var4 var5))))))) (inv_main40 var0 var8 var7 var6 var5 var4 var3 var2 var1))))
(assert (forall ((var0 Heap) (var1 Int) (var2 Int) (var3 Int) (var4 Int) (var5 Int) (var6 AddrRange) (var7 AddrRange) (var8 Int) (var9 Heap)) (or (not (and (inv_main37 var9 var8 var7 var6 var5 var4 var3 var2 var1) (and (and (is-O_Int (read var9 (nthAddrRange var7 var1))) (is-O_Int (read var9 (nthAddrRange var7 var1)))) (= var0 (write var9 (nthAddrRange var7 var1) (O_Int (* var4 (* var4 var5)))))))) (inv_main39 var0 var8 var7 var6 var5 var4 var3 var2 var1))))
(assert (forall ((var0 Int) (var1 Int) (var2 Int) (var3 Int) (var4 Int) (var5 Int) (var6 Int) (var7 AddrRange) (var8 AddrRange) (var9 Int) (var10 Heap)) (or (not (and (inv_main41 var10 var9 var8 var7 var6 var5 var4 var3 var2) (and (not (= var1 0)) (= var0 (+ var6 1))))) (inv_main23 var10 var9 var8 var7 var0 var5 var4 var1 var2))))
(assert (forall ((var0 Int) (var1 Int) (var2 Int) (var3 Int) (var4 Int) (var5 AddrRange) (var6 AddrRange) (var7 Heap) (var8 Int) (var9 Int) (var10 Int) (var11 Int) (var12 Int) (var13 Int) (var14 Int) (var15 AddrRange) (var16 AddrRange) (var17 Int) (var18 Heap)) (or (not (and (inv_main22 var18 var17 var16 var15 var14 var13 var12 var11 var10) (and (and (not (<= 0 (+ (+ var9 (* (- 1) (+ var8 1))) (- 1)))) (and (and (is-O_Int (read var18 (nthAddrRange var15 var14))) (is-O_Int (read var18 (nthAddrRange var15 var14)))) (and (and (and (and (and (and (and (and (= var7 (write var18 (nthAddrRange var15 var14) (O_Int 0))) (= var9 var17)) (= var6 var16)) (= var5 var15)) (= var8 var14)) (= var4 var13)) (= var3 var12)) (= var2 var11)) (= var1 var10)))) (= var0 1)))) (inv_main23 var7 var9 var6 var5 var0 var4 var3 var2 var1))))
(assert (forall ((var0 Int) (var1 Int) (var2 Int) (var3 Int) (var4 Int) (var5 Int) (var6 Heap) (var7 Int) (var8 Int) (var9 Int) (var10 Heap) (var11 AddrRange) (var12 AddrRange) (var13 AddrRange) (var14 Int) (var15 Int) (var16 Heap) (var17 Int) (var18 Int) (var19 Heap)) (or (not (and (inv_main2 var19 var18) (and (and (and (and (and (and (not (<= 0 (+ var17 (- 1)))) (and (and (and (= var16 (newBatchHeap (batchAlloc emptyHeap (O_Int var15) var14))) (= var17 var14)) (= var13 var12)) (= var11 (newAddrRange (batchAlloc emptyHeap (O_Int var15) var14))))) (and (and (= var10 (newBatchHeap (batchAlloc emptyHeap (O_Int var9) var8))) (= var14 var8)) (= var12 (newAddrRange (batchAlloc emptyHeap (O_Int var9) var8))))) (and (not (= var7 0)) (and (and (= var6 var19) (= var8 var5)) (or (and (<= 0 (+ var5 (- 1))) (= var7 1)) (and (not (<= 0 (+ var5 (- 1)))) (= var7 0)))))) (= var4 1)) (= var3 (- 1))) (= var2 0)))) (inv_main23 var16 var17 var13 var11 var4 var3 var2 var1 var0))))
(assert (forall ((var0 Heap) (var1 Int) (var2 Int) (var3 Int) (var4 Int) (var5 Int) (var6 AddrRange) (var7 AddrRange) (var8 Int) (var9 Heap)) (or (not (and (inv_main20 var9 var8 var7 var6 var5 var4 var3 var2 var1) (and (and (is-O_Int (read var9 (nthAddrRange var7 var5))) (is-O_Int (read var9 (nthAddrRange var7 var5)))) (= var0 (write var9 (nthAddrRange var7 var5) (O_Int 0)))))) (inv_main22 var0 var8 var7 var6 var5 var4 var3 var2 var1))))
(assert (forall ((var0 Int) (var1 Int) (var2 Int) (var3 Int) (var4 Int) (var5 AddrRange) (var6 AddrRange) (var7 Int) (var8 Heap) (var9 Int) (var10 Int) (var11 Int) (var12 Int) (var13 Int) (var14 Int) (var15 AddrRange) (var16 AddrRange) (var17 Int) (var18 Heap)) (or (not (and (inv_main39 var18 var17 var16 var15 var14 var13 var12 var11 var10) (and (and (and (= var9 200) (and (is-O_Int (read var18 (nthAddrRange var15 var10))) (is-O_Int (read var18 (nthAddrRange var15 var10))))) (and (and (and (and (and (and (and (and (= var8 (write var18 (nthAddrRange var15 var10) (O_Int (* var13 var14)))) (= var7 var17)) (= var6 var16)) (= var5 var15)) (= var9 var14)) (= var4 var13)) (= var3 var12)) (= var2 var11)) (= var1 var10))) (= var0 0)))) (inv_main41 var8 var7 var6 var5 var0 var4 var3 var2 var1))))
(assert (forall ((var0 Int) (var1 Int) (var2 Int) (var3 Int) (var4 AddrRange) (var5 AddrRange) (var6 Int) (var7 Heap) (var8 Int) (var9 Int) (var10 Int) (var11 Int) (var12 Int) (var13 Int) (var14 AddrRange) (var15 AddrRange) (var16 Int) (var17 Heap)) (or (not (and (inv_main39 var17 var16 var15 var14 var13 var12 var11 var10 var9) (and (and (not (= var8 200)) (and (is-O_Int (read var17 (nthAddrRange var14 var9))) (is-O_Int (read var17 (nthAddrRange var14 var9))))) (and (and (and (and (and (and (and (and (= var7 (write var17 (nthAddrRange var14 var9) (O_Int (* var12 var13)))) (= var6 var16)) (= var5 var15)) (= var4 var14)) (= var8 var13)) (= var3 var12)) (= var2 var11)) (= var1 var10)) (= var0 var9))))) (inv_main41 var7 var6 var5 var4 var8 var3 var2 var1 var0))))
(assert (forall ((var0 Int) (var1 Int) (var2 Int) (var3 Int) (var4 Int) (var5 AddrRange) (var6 AddrRange) (var7 Int) (var8 Heap) (var9 Int) (var10 Int) (var11 Int) (var12 Int) (var13 Int) (var14 Int) (var15 AddrRange) (var16 AddrRange) (var17 Int) (var18 Heap)) (or (not (and (inv_main40 var18 var17 var16 var15 var14 var13 var12 var11 var10) (and (and (and (= var9 200) (and (is-O_Int (read var18 (nthAddrRange var15 var10))) (is-O_Int (read var18 (nthAddrRange var15 var10))))) (and (and (and (and (and (and (and (and (= var8 (write var18 (nthAddrRange var15 var10) (O_Int (* var13 (* var13 var14))))) (= var7 var17)) (= var6 var16)) (= var5 var15)) (= var9 var14)) (= var4 var13)) (= var3 var12)) (= var2 var11)) (= var1 var10))) (= var0 0)))) (inv_main41 var8 var7 var6 var5 var0 var4 var3 var2 var1))))
(assert (forall ((var0 Int) (var1 Int) (var2 Int) (var3 Int) (var4 AddrRange) (var5 AddrRange) (var6 Int) (var7 Heap) (var8 Int) (var9 Int) (var10 Int) (var11 Int) (var12 Int) (var13 Int) (var14 AddrRange) (var15 AddrRange) (var16 Int) (var17 Heap)) (or (not (and (inv_main40 var17 var16 var15 var14 var13 var12 var11 var10 var9) (and (and (not (= var8 200)) (and (is-O_Int (read var17 (nthAddrRange var14 var9))) (is-O_Int (read var17 (nthAddrRange var14 var9))))) (and (and (and (and (and (and (and (and (= var7 (write var17 (nthAddrRange var14 var9) (O_Int (* var12 (* var12 var13))))) (= var6 var16)) (= var5 var15)) (= var4 var14)) (= var8 var13)) (= var3 var12)) (= var2 var11)) (= var1 var10)) (= var0 var9))))) (inv_main41 var7 var6 var5 var4 var8 var3 var2 var1 var0))))
(assert (forall ((var0 Int) (var1 Int) (var2 Int) (var3 Int) (var4 Int) (var5 Int) (var6 Int) (var7 AddrRange) (var8 AddrRange) (var9 Int) (var10 Heap)) (or (not (and (inv_main41 var10 var9 var8 var7 var6 var5 var4 var3 var2) (and (and (<= 0 (+ var9 (- 1))) (= var1 0)) (= var0 0)))) (inv_main51 var10 var9 var8 var7 var0 var5 var4 var1 var2))))
(assert (forall ((var0 Int) (var1 Int) (var2 Int) (var3 Int) (var4 Int) (var5 Int) (var6 AddrRange) (var7 AddrRange) (var8 Heap) (var9 Int) (var10 Int) (var11 Int) (var12 Int) (var13 Int) (var14 Int) (var15 Int) (var16 Int) (var17 AddrRange) (var18 AddrRange) (var19 Int) (var20 Heap)) (or (not (and (inv_main53 var20 var19 var18 var17 var16 var15 var14 var13 var12 var11) (and (and (<= 0 (+ (+ var10 (* (- 1) (+ var9 1))) (- 1))) (and (is-O_Int (read var20 (nthAddrRange var17 var16))) (and (and (and (and (and (and (and (and (and (= var8 var20) (= var10 var19)) (= var7 var18)) (= var6 var17)) (= var9 var16)) (= var5 var15)) (= var4 var14)) (= var3 var13)) (= var2 var12)) (= var1 (+ var11 (getInt (read var20 (nthAddrRange var17 var16)))))))) (= var0 (+ var9 1))))) (inv_main51 var8 var10 var7 var6 var0 var5 var1 var3 var2))))
(assert (forall ((var0 Int) (var1 Int) (var2 Int) (var3 Int) (var4 Int) (var5 Int) (var6 Int) (var7 AddrRange) (var8 AddrRange) (var9 Int) (var10 Heap)) (or (not (and (inv_main41 var10 var9 var8 var7 var6 var5 var4 var3 var2) (and (and (not (<= 0 (+ var9 (- 1)))) (= var1 0)) (= var0 0)))) (inv_main49 var10 var9 var8 var7 var0 var5 var4 var1 var2))))
(assert (forall ((var0 Int) (var1 Int) (var2 Int) (var3 Int) (var4 Int) (var5 Int) (var6 AddrRange) (var7 AddrRange) (var8 Heap) (var9 Int) (var10 Int) (var11 Int) (var12 Int) (var13 Int) (var14 Int) (var15 Int) (var16 Int) (var17 AddrRange) (var18 AddrRange) (var19 Int) (var20 Heap)) (or (not (and (inv_main53 var20 var19 var18 var17 var16 var15 var14 var13 var12 var11) (and (and (not (<= 0 (+ (+ var10 (* (- 1) (+ var9 1))) (- 1)))) (and (is-O_Int (read var20 (nthAddrRange var17 var16))) (and (and (and (and (and (and (and (and (and (= var8 var20) (= var10 var19)) (= var7 var18)) (= var6 var17)) (= var9 var16)) (= var5 var15)) (= var4 var14)) (= var3 var13)) (= var2 var12)) (= var1 (+ var11 (getInt (read var20 (nthAddrRange var17 var16)))))))) (= var0 (+ var9 1))))) (inv_main49 var8 var10 var7 var6 var0 var5 var1 var3 var2))))
(assert (forall ((var0 Int) (var1 Int) (var2 Int) (var3 Int) (var4 Int) (var5 AddrRange) (var6 AddrRange) (var7 Int) (var8 Heap)) (not (and (inv_main20 var8 var7 var6 var5 var4 var3 var2 var1 var0) (not (is-O_Int (read var8 (nthAddrRange var6 var4))))))))
(assert (forall ((var0 Int) (var1 Int) (var2 Int) (var3 Int) (var4 Int) (var5 AddrRange) (var6 AddrRange) (var7 Int) (var8 Heap)) (not (and (inv_main20 var8 var7 var6 var5 var4 var3 var2 var1 var0) (and (is-O_Int (read var8 (nthAddrRange var6 var4))) (not (within var6 (nthAddrRange var6 var4))))))))
(assert (forall ((var0 Int) (var1 Int) (var2 Int) (var3 Int) (var4 Int) (var5 AddrRange) (var6 AddrRange) (var7 Int) (var8 Heap)) (not (and (inv_main20 var8 var7 var6 var5 var4 var3 var2 var1 var0) (and (is-O_Int (read var8 (nthAddrRange var6 var4))) (not (is-O_Int (read var8 (nthAddrRange var6 var4)))))))))
(assert (forall ((var0 Int) (var1 Int) (var2 Int) (var3 Int) (var4 Int) (var5 AddrRange) (var6 AddrRange) (var7 Int) (var8 Heap)) (not (and (inv_main22 var8 var7 var6 var5 var4 var3 var2 var1 var0) (not (is-O_Int (read var8 (nthAddrRange var5 var4))))))))
(assert (forall ((var0 Int) (var1 Int) (var2 Int) (var3 Int) (var4 Int) (var5 AddrRange) (var6 AddrRange) (var7 Int) (var8 Heap)) (not (and (inv_main22 var8 var7 var6 var5 var4 var3 var2 var1 var0) (and (is-O_Int (read var8 (nthAddrRange var5 var4))) (not (within var5 (nthAddrRange var5 var4))))))))
(assert (forall ((var0 Int) (var1 Int) (var2 Int) (var3 Int) (var4 Int) (var5 AddrRange) (var6 AddrRange) (var7 Int) (var8 Heap)) (not (and (inv_main22 var8 var7 var6 var5 var4 var3 var2 var1 var0) (and (is-O_Int (read var8 (nthAddrRange var5 var4))) (not (is-O_Int (read var8 (nthAddrRange var5 var4)))))))))
(assert (forall ((var0 Int) (var1 Int) (var2 Int) (var3 Int) (var4 Int) (var5 AddrRange) (var6 AddrRange) (var7 Int) (var8 Heap)) (not (and (inv_main37 var8 var7 var6 var5 var4 var3 var2 var1 var0) (not (is-O_Int (read var8 (nthAddrRange var6 var0))))))))
(assert (forall ((var0 Int) (var1 Int) (var2 Int) (var3 Int) (var4 Int) (var5 AddrRange) (var6 AddrRange) (var7 Int) (var8 Heap)) (not (and (inv_main37 var8 var7 var6 var5 var4 var3 var2 var1 var0) (and (is-O_Int (read var8 (nthAddrRange var6 var0))) (not (within var6 (nthAddrRange var6 var0))))))))
(assert (forall ((var0 Int) (var1 Int) (var2 Int) (var3 Int) (var4 Int) (var5 AddrRange) (var6 AddrRange) (var7 Int) (var8 Heap)) (not (and (inv_main37 var8 var7 var6 var5 var4 var3 var2 var1 var0) (and (is-O_Int (read var8 (nthAddrRange var6 var0))) (not (is-O_Int (read var8 (nthAddrRange var6 var0)))))))))
(assert (forall ((var0 Int) (var1 Int) (var2 Int) (var3 Int) (var4 Int) (var5 AddrRange) (var6 AddrRange) (var7 Int) (var8 Heap)) (not (and (inv_main39 var8 var7 var6 var5 var4 var3 var2 var1 var0) (not (is-O_Int (read var8 (nthAddrRange var5 var0))))))))
(assert (forall ((var0 Int) (var1 Int) (var2 Int) (var3 Int) (var4 Int) (var5 AddrRange) (var6 AddrRange) (var7 Int) (var8 Heap)) (not (and (inv_main39 var8 var7 var6 var5 var4 var3 var2 var1 var0) (and (is-O_Int (read var8 (nthAddrRange var5 var0))) (not (within var5 (nthAddrRange var5 var0))))))))
(assert (forall ((var0 Int) (var1 Int) (var2 Int) (var3 Int) (var4 Int) (var5 AddrRange) (var6 AddrRange) (var7 Int) (var8 Heap)) (not (and (inv_main39 var8 var7 var6 var5 var4 var3 var2 var1 var0) (and (is-O_Int (read var8 (nthAddrRange var5 var0))) (not (is-O_Int (read var8 (nthAddrRange var5 var0)))))))))
(assert (forall ((var0 Int) (var1 Int) (var2 Int) (var3 Int) (var4 Int) (var5 AddrRange) (var6 AddrRange) (var7 Int) (var8 Heap)) (not (and (inv_main38 var8 var7 var6 var5 var4 var3 var2 var1 var0) (not (is-O_Int (read var8 (nthAddrRange var6 var0))))))))
(assert (forall ((var0 Int) (var1 Int) (var2 Int) (var3 Int) (var4 Int) (var5 AddrRange) (var6 AddrRange) (var7 Int) (var8 Heap)) (not (and (inv_main38 var8 var7 var6 var5 var4 var3 var2 var1 var0) (and (is-O_Int (read var8 (nthAddrRange var6 var0))) (not (within var6 (nthAddrRange var6 var0))))))))
(assert (forall ((var0 Int) (var1 Int) (var2 Int) (var3 Int) (var4 Int) (var5 AddrRange) (var6 AddrRange) (var7 Int) (var8 Heap)) (not (and (inv_main38 var8 var7 var6 var5 var4 var3 var2 var1 var0) (and (is-O_Int (read var8 (nthAddrRange var6 var0))) (not (is-O_Int (read var8 (nthAddrRange var6 var0)))))))))
(assert (forall ((var0 Int) (var1 Int) (var2 Int) (var3 Int) (var4 Int) (var5 AddrRange) (var6 AddrRange) (var7 Int) (var8 Heap)) (not (and (inv_main40 var8 var7 var6 var5 var4 var3 var2 var1 var0) (not (is-O_Int (read var8 (nthAddrRange var5 var0))))))))
(assert (forall ((var0 Int) (var1 Int) (var2 Int) (var3 Int) (var4 Int) (var5 AddrRange) (var6 AddrRange) (var7 Int) (var8 Heap)) (not (and (inv_main40 var8 var7 var6 var5 var4 var3 var2 var1 var0) (and (is-O_Int (read var8 (nthAddrRange var5 var0))) (not (within var5 (nthAddrRange var5 var0))))))))
(assert (forall ((var0 Int) (var1 Int) (var2 Int) (var3 Int) (var4 Int) (var5 AddrRange) (var6 AddrRange) (var7 Int) (var8 Heap)) (not (and (inv_main40 var8 var7 var6 var5 var4 var3 var2 var1 var0) (and (is-O_Int (read var8 (nthAddrRange var5 var0))) (not (is-O_Int (read var8 (nthAddrRange var5 var0)))))))))
(assert (forall ((var0 Int) (var1 Int) (var2 Int) (var3 Int) (var4 Int) (var5 AddrRange) (var6 AddrRange) (var7 Int) (var8 Heap)) (not (and (inv_main51 var8 var7 var6 var5 var4 var3 var2 var1 var0) (not (is-O_Int (read var8 (nthAddrRange var6 var4))))))))
(assert (forall ((var0 Int) (var1 Int) (var2 Int) (var3 Int) (var4 Int) (var5 AddrRange) (var6 AddrRange) (var7 Int) (var8 Heap)) (not (and (inv_main51 var8 var7 var6 var5 var4 var3 var2 var1 var0) (and (is-O_Int (read var8 (nthAddrRange var6 var4))) (not (within var6 (nthAddrRange var6 var4))))))))
(assert (forall ((var0 Int) (var1 Int) (var2 Int) (var3 Int) (var4 Int) (var5 Int) (var6 AddrRange) (var7 AddrRange) (var8 Int) (var9 Heap)) (not (and (inv_main53 var9 var8 var7 var6 var5 var4 var3 var2 var1 var0) (not (is-O_Int (read var9 (nthAddrRange var6 var5))))))))
(assert (forall ((var0 Int) (var1 Int) (var2 Int) (var3 Int) (var4 Int) (var5 Int) (var6 AddrRange) (var7 AddrRange) (var8 Int) (var9 Heap)) (not (and (inv_main53 var9 var8 var7 var6 var5 var4 var3 var2 var1 var0) (and (is-O_Int (read var9 (nthAddrRange var6 var5))) (not (within var6 (nthAddrRange var6 var5))))))))
(assert (forall ((var0 Int) (var1 Int) (var2 Int) (var3 Int) (var4 Int) (var5 AddrRange) (var6 AddrRange) (var7 Int) (var8 Heap)) (not (and (inv_main49 var8 var7 var6 var5 var4 var3 var2 var1 var0) (not (= var2 0))))))
(check-sat)
